CMD:
./solvers/bin/cadical --plain --no-reduce -t 1600 ./data/cnfs//dspfilters_fastfir_second-p10/dspfilters_fastfir_second-p10.28.cnf

c --- [ banner ] -------------------------------------------------------------
c 
c CaDiCaL SAT Solver
c Copyright (c) 2016-2024
c A. Biere, M. Fleury, N. Froleyks, K. Fazekas, F. Pollitt, T. Faller
c JKU Linz, University of Freiburg, TU Wien
c 
c Version 2.1.3 5296d3d2a9bf48c154ab2acb5e44625776d821bf
c g++ (Gentoo 12.3.1_p20230526 p2) 12.3.1 20230526 -Wall -Wextra -O3 -DNDEBUG
c Sat Aug 9 07:26:21 PDT 2025 Linux cedar2.int.cedar.computecanada.ca 5.14.0-362.24.2.el9_3.x86_64 x86_64
c 
c --- [ limit ] --------------------------------------------------------------
c 
c setting time limit to 1600 seconds real time (due to '-t 1600')
c 
c --- [ parsing input ] ------------------------------------------------------
c 
c reading DIMACS file from './data/cnfs//dspfilters_fastfir_second-p10/dspfilters_fastfir_second-p10.28.cnf'
c opening file to read './data/cnfs//dspfilters_fastfir_second-p10/dspfilters_fastfir_second-p10.28.cnf'
c found 'p cnf 851660 2483814' header
c parsed 2483814 clauses in 0.41 seconds process time
c 
c --- [ options ] ------------------------------------------------------------
c 
c   --compact=false                (different from default 'true')
c   --decompose=false              (different from default 'true')
c   --deduplicate=false            (different from default 'true')
c   --elim=false                   (different from default 'true')
c   --probe=false                  (different from default 'true')
c   --reduce=false                 (different from default 'true')
c   --subsume=false                (different from default 'true')
c   --ternary=false                (different from default 'true')
c   --transred=false               (different from default 'true')
c   --vivify=false                 (different from default 'true')
c 
c --- [ solving ] ------------------------------------------------------------
c 
c time measured in process time since initialization
c 
c  seconds   reductions  redundant   irredundant
c          MB    restarts       trail        variables
c           level   conflicts       glue           remaining
c 
c *  0.41 376  0 0   0    0    0  0% 0 2356579 767967 90%
c {  0.71 387  0 0   0    0    0  0% 0 2356579 767967 90%
c i  0.72 388 98 0   0    8    5 11% 1 2356579 767962 90%
c i  0.85 388 231 0  13  196  140 16% 4 2356579 767960 90%
c i  1.75 389 218 0  46  655  509 23% 5 2356579 766553 90%
c }  2.51 389 153 0 104 1000  807 22% 5 2356579 766553 90%
c [  2.51 389  0 0 104 1000  807  0% 0 2356579 766553 90%
c O  2.72 389 6853 0 104 1002  809 54% 8 2356579 766553 90%
c i  2.77 389 198 0 104 1080  884 21% 3 2356579 766378 90%
c ]  4.39 390 25 0 105 3002 2589 24% 8 2356579 766378 90%
c {  4.39 390 153 0 105 3002 2589 22% 5 2356579 766378 90%
c F  4.39 390 153 0 106 3003 2590 22% 5 2356579 766378 90%
c i  5.81 390 77 0 200 4171 3474 22% 5 2356579 765223 90%
c i  6.57 390 67 0 296 4581 3761 22% 6 2356579 751121 88%
c i  7.54 390 59 0 404 5106 4116 22% 6 2356579 750346 88%
c i  8.01 390 53 0 446 5552 4388 22% 6 2356579 750312 88%
c i  8.44 390 50 0 470 5850 4585 22% 6 2356579 749706 88%
c i  8.44 390 50 0 470 5852 4586 22% 6 2356579 748695 88%
c #  8.70 390 49 0 509 6005 4685 22% 6 2356579 747983 88%
c i  9.58 391 45 0 626 6474 4999 23% 6 2356579 747949 88%
c 
c  seconds   reductions  redundant   irredundant
c          MB    restarts       trail        variables
c           level   conflicts       glue           remaining
c 
c i  9.58 391 45 0 627 6475 4999 23% 6 2356579 747915 88%
c } 10.37 391 42 0 730 7002 5349 23% 7 2356579 747915 88%
c [ 10.37 391 25 0 730 7002 5349 24% 8 2356579 747915 88%
c i 11.66 391 20 0 731 8388 6185 25% 8 2356579 747906 88%
c i 13.69 391 18 0 732 9876 7071 26% 7 2356579 746187 88%
c I 13.92 391 18 0 732 10007 7185 26% 7 2356579 746187 88%
c i 14.58 391 17 0 733 10499 7514 26% 7 2356579 745103 87%
c i 17.74 391 20 0 734 12343 8492 26% 7 2356579 744813 87%
c i 20.71 392 18 0 735 13897 9300 26% 7 2356579 741170 87%
c i 21.10 392 18 0 735 14191 9398 26% 7 2356579 740705 87%
c i 21.24 392 18 0 735 14320 9471 26% 6 2356579 739292 87%
c i 21.36 392 18 0 735 14447 9524 26% 6 2356579 723554 85%
c i 21.41 392 18 0 735 14466 9535 26% 6 2356579 701803 82%
c i 21.45 392 18 0 735 14492 9547 26% 6 2356579 658418 77%
c i 21.46 392 18 0 735 14500 9554 26% 6 2356579 658414 77%
c i 21.47 392 18 0 735 14507 9556 26% 6 2356579 658411 77%
c i 21.47 392 18 0 735 14510 9556 26% 6 2356579 658407 77%
c ] 21.48 392 18 0 735 14513 9557 26% 6 2356579 609124 72%
c 0 21.48 392 18 0 735 14513 9557 26% 6 2356579 609124 72%
c 
c --- [ result ] -------------------------------------------------------------
c 
s UNSATISFIABLE
c 
c --- [ run-time profiling ] -------------------------------------------------
c 
c process time taken by individual solving procedures
c (percentage relative to process time for solving)
c 
c        21.07  100.00% search
c        12.98   61.62% stable
c         7.78   36.95% unstable
c         0.41    1.96% parse
c         0.30    1.43% lucky
c         0.00    0.00% simplify
c   =================================
c        21.07   98.08% solve
c 
c last line shows process time for solving
c (percentage relative to total process time)
c 
c --- [ statistics ] ---------------------------------------------------------
c 
c chronological:              9820        67.66 %  of conflicts
c conflicts:                 14513       688.94    per second
c decisions:                107627      5109.08    per second
c fixed:                    240749        28.27 %  of all variables
c learned:                   14080        97.02 %  per conflict
c learned_lits:             571809       100.00 %  learned literals
c minimized:                     0         0.00 %  learned literals
c shrunken:                 298057        52.13 %  learned literals
c minishrunken:              69032        12.07 %  learned literals
c otfs:                         56         0.39 %  of conflict
c propagations:          190264078         9.03 M  per second
c rephased:                      4      3628.25    interval
c restarts:                    735        19.75    interval
c stabilizing:                   2        65.54 %  of conflicts
c subsumed:                   4498         0.19 %  of all clauses
c strengthened:                 54         0.00 %  of all clauses
c 
c seconds are measured in process time for solving
c 
c --- [ resources ] ----------------------------------------------------------
c 
c total process time since initialization:        21.48    seconds
c total real time since initialization:           21.58    seconds
c maximum resident set size of process:          390.07    MB
c 
c --- [ shutting down ] ------------------------------------------------------
c 
c exit 20
